c WARNING: for repeatability, setting FPU to use double precision
d VARIABLES            138130       
d CONSTRAINTS          502920       
c ============================[ Problem Statistics ]=============================
c |                                                                             |
c |  Number of variables:        138130                                         |
c |  Number of clauses:          502920                                         |
c |  Parse time:                   0.08 s                                       |
c |                                                                             |
c ============================[ Search Statistics ]==============================
c | Conflicts |          ORIGINAL         |          LEARNT          | Progress |
c |           |    Vars  Clauses Literals |    Limit  Clauses Lit/Cl |          |
c ===============================================================================
c |       100 |  109163   428290  1076041 |   157039      100     23 | 20.971 % |
c |       250 |  109163   428290  1076041 |   172743      250     13 | 20.971 % |
c |       475 |  109163   428290  1076041 |   190017      475     17 | 20.971 % |
c |       812 |  109163   428290  1076041 |   209019      812     15 | 20.971 % |
c |      1318 |  109163   428290  1076041 |   229921     1318     15 | 20.971 % |
c |      2077 |  109163   428290  1076041 |   252913     2077     12 | 20.971 % |
c |      3216 |  109163   428290  1076041 |   278205     3216     14 | 20.971 % |
c |      4924 |  109163   428290  1076041 |   306025     4924     14 | 20.971 % |
c |      7486 |  109163   428290  1076041 |   336628     7486     15 | 20.971 % |
c |     11330 |  109163   428290  1076041 |   370291    11330     19 | 20.971 % |
c |     17096 |  109163   428290  1076041 |   407320    17096     28 | 20.971 % |
c |     25745 |  109163   428290  1076041 |   448052    25745     33 | 20.971 % |
c |     38719 |  109149   428162  1075749 |   492857    38705     48 | 20.981 % |
c ===============================================================================
c restarts              : 127
c conflicts             : 41173          (2436 /sec)
c decisions             : 759643         (0.00 % random) (44936 /sec)
c propagations          : 116823487      (6910565 /sec)
c conflict literals     : 1968102        (13.05 % deleted)
d RESTARTS             127
d FAILURES             41173        
d NODES                759643       
d BACKTRACKS           759643       
d PROPAGATIONS         116823487    
d NOGOODSIZE           47.80 
d MEMORY               51.00 
d TIME                 16.9051 

s UNSATISFIABLE
